========================================================== 
File name: C:\DEGR\assets\definitions\MSRCPSP_Gen\200_40_512_10_C.def
Creation date: Wed May 03 10:50:03 CEST 2023
Website: http://imopse.ii.pwr.edu.pl/ 
Reference: 
Myszkowski P. B., Skowronski M. E., Olech L., Oslizlo K., 
Hybrid Ant Colony Optimization in solving Multi-Skill Resource-Constrained Project Scheduling Problem, 
Soft Computing, DOI: DOI 10.1007/s00500-014-1455-x 
========================================================== 
General characteristics: 
Tasks: 200
Resources: 40
Precedence relations: 507
Number of skill types: 10
========================================================== 
ResourceID 	 Salary 	 Skills 
1	 	 	67.5	 	 Q6: 3 	  Q9: 1 	  Q3: 3 	  Q4: 0 	  Q7: 1 	  Q5: 1 	  Q0: 3 	 
2	 	 	27.1	 	 Q6: 2 	  Q7: 0 	  Q2: 0 	  Q0: 0 	  Q1: 0 	  Q5: 3 	  Q4: 1 	  Q8: 0 	 
3	 	 	86.7	 	 Q2: 0 	 
4	 	 	93.6	 	 Q3: 2 	  Q9: 0 	  Q5: 0 	  Q6: 3 	 
5	 	 	42.7	 	 Q6: 3 	  Q3: 0 	  Q7: 1 	  Q1: 1 	  Q5: 1 	  Q9: 3 	  Q0: 3 	  Q8: 1 	  Q2: 2 	 
6	 	 	98.8	 	 Q9: 0 	  Q4: 2 	  Q6: 1 	  Q2: 3 	 
7	 	 	11.3	 	 Q4: 3 	  Q8: 3 	  Q5: 2 	  Q9: 0 	 
8	 	 	57.3	 	 Q6: 0 	  Q2: 2 	  Q9: 3 	  Q5: 2 	  Q0: 1 	  Q8: 0 	 
9	 	 	36.6	 	 Q1: 3 	  Q7: 2 	  Q9: 1 	  Q0: 0 	  Q3: 3 	  Q4: 2 	 
10	 	 	44.5	 	 Q8: 3 	  Q5: 3 	  Q0: 3 	  Q1: 2 	  Q2: 2 	 
11	 	 	39.4	 	 Q4: 1 	  Q5: 1 	  Q9: 1 	  Q2: 2 	  Q3: 1 	  Q6: 1 	  Q7: 1 	  Q0: 0 	  Q1: 1 	 
12	 	 	67.4	 	 Q3: 2 	  Q9: 0 	  Q6: 1 	  Q8: 1 	  Q5: 1 	  Q2: 3 	  Q7: 3 	  Q1: 3 	 
13	 	 	30.9	 	 Q4: 1 	  Q6: 2 	  Q3: 2 	  Q8: 1 	  Q1: 3 	  Q7: 3 	  Q0: 1 	  Q9: 0 	 
14	 	 	90.4	 	 Q7: 0 	  Q0: 0 	 
15	 	 	31.6	 	 Q9: 1 	  Q5: 3 	  Q7: 3 	  Q8: 3 	 
16	 	 	62.8	 	 Q5: 2 	  Q9: 2 	  Q7: 3 	  Q2: 2 	  Q3: 3 	  Q1: 3 	  Q4: 3 	  Q0: 1 	  Q6: 2 	 
17	 	 	52.1	 	 Q3: 3 	  Q8: 1 	  Q7: 0 	  Q1: 3 	  Q0: 1 	  Q6: 3 	  Q4: 2 	  Q9: 2 	  Q2: 3 	 
18	 	 	12.1	 	 Q2: 3 	  Q9: 0 	  Q0: 0 	 
19	 	 	24.6	 	 Q2: 0 	 
20	 	 	76.6	 	 Q5: 3 	  Q1: 1 	 
21	 	 	44.2	 	 Q2: 2 	  Q3: 2 	  Q8: 2 	  Q4: 0 	  Q1: 1 	  Q6: 0 	  Q9: 3 	  Q5: 3 	  Q7: 3 	 
22	 	 	56.6	 	 Q1: 0 	  Q5: 1 	  Q6: 1 	 
23	 	 	45.1	 	 Q4: 3 	  Q2: 3 	  Q5: 1 	  Q6: 2 	  Q8: 0 	 
24	 	 	24.3	 	 Q9: 3 	  Q5: 1 	  Q0: 2 	  Q6: 2 	  Q7: 2 	  Q1: 1 	  Q3: 0 	 
25	 	 	41.8	 	 Q8: 3 	  Q4: 2 	  Q7: 3 	  Q5: 3 	  Q2: 0 	  Q1: 2 	 
26	 	 	43.2	 	 Q0: 3 	  Q4: 2 	 
27	 	 	75.5	 	 Q4: 0 	  Q9: 3 	  Q3: 0 	  Q5: 2 	  Q6: 2 	  Q1: 1 	 
28	 	 	20.2	 	 Q3: 1 	 
29	 	 	47.3	 	 Q5: 1 	 
30	 	 	34.8	 	 Q9: 2 	  Q8: 2 	  Q7: 2 	  Q6: 1 	  Q5: 2 	  Q2: 0 	  Q1: 3 	  Q4: 0 	  Q0: 2 	 
31	 	 	90.7	 	 Q7: 0 	  Q1: 3 	  Q2: 0 	 
32	 	 	80.9	 	 Q2: 3 	  Q5: 2 	  Q4: 0 	  Q1: 1 	  Q9: 1 	  Q0: 0 	  Q8: 1 	  Q7: 1 	 
33	 	 	31.0	 	 Q2: 3 	  Q8: 0 	  Q0: 1 	  Q7: 3 	  Q3: 1 	  Q1: 0 	 
34	 	 	26.3	 	 Q5: 2 	  Q9: 3 	  Q8: 2 	  Q2: 0 	  Q4: 0 	 
35	 	 	78.9	 	 Q1: 3 	 
36	 	 	93.5	 	 Q1: 2 	  Q9: 3 	  Q0: 1 	  Q5: 2 	  Q2: 2 	 
37	 	 	93.1	 	 Q7: 2 	  Q1: 3 	 
38	 	 	95.7	 	 Q1: 2 	  Q2: 2 	  Q6: 0 	  Q9: 0 	 
39	 	 	39.6	 	 Q2: 3 	 
40	 	 	87.6	 	 Q4: 3 	  Q6: 3 	  Q0: 3 	  Q3: 2 	 
========================================================== 
TaskID 	 Duration 	 Skill 	 Predecessor IDs 
1	33	Q2:	0
2	17	Q8:	2
3	26	Q6:	0
4	18	Q2:	0
5	39	Q8:	3
6	40	Q2:	2
7	25	Q1:	2
8	9	Q9:	0	5
9	25	Q9:	0	8
10	34	Q4:	1
11	18	Q6:	1	3
12	13	Q0:	3	8
13	29	Q0:	2
14	10	Q1:	1
15	40	Q0:	1
16	23	Q8:	2	5	10
17	36	Q6:	1
18	37	Q9:	1
19	9	Q7:	1
20	20	Q9:	3
21	25	Q8:	2
22	10	Q8:	0	16
23	23	Q4:	1
24	24	Q9:	2	22
25	33	Q8:	0
26	19	Q6:	2
27	11	Q6:	3
28	22	Q6:	3	10
29	31	Q1:	1
30	16	Q6:	0	29
31	15	Q4:	2
32	19	Q1:	1	24
33	29	Q1:	1	12
34	28	Q7:	2	20
35	17	Q8:	1
36	28	Q5:	1
37	12	Q1:	2	33
38	31	Q4:	0
39	12	Q6:	0
40	38	Q3:	1	30	18
41	22	Q7:	2	13
42	27	Q0:	3	40
43	20	Q6:	2	16	29	36
44	19	Q5:	0	20
45	14	Q9:	1
46	32	Q5:	1	22
47	9	Q4:	1
48	9	Q7:	2	35	11	27
49	32	Q8:	0	20	46
50	38	Q4:	0	41	47	11
51	40	Q5:	2	14	36
52	13	Q0:	0
53	34	Q0:	0
54	12	Q6:	0
55	21	Q7:	3	44
56	21	Q0:	3
57	32	Q3:	2	43	28	26
58	40	Q9:	1
59	34	Q9:	2	17
60	18	Q5:	1	3
61	26	Q1:	3	15	7	54	46	56
62	17	Q1:	0	46	7
63	31	Q1:	2	49	40
64	38	Q8:	0	31
65	26	Q3:	0	56	38	4	23
66	8	Q5:	0	13	45	30
67	22	Q7:	0	19	24
68	11	Q1:	1
69	26	Q3:	1	53
70	14	Q3:	3	63
71	12	Q7:	2	4
72	34	Q1:	2	68	38	50	22	30
73	14	Q6:	1	15	26	8
74	20	Q7:	1	48
75	14	Q0:	3	23	30
76	34	Q0:	2	56
77	35	Q0:	3	11	32	6
78	36	Q3:	0	29	53	30
79	9	Q6:	1	54
80	30	Q5:	0	36
81	9	Q6:	0	44	45	72
82	22	Q9:	3	31	41	17	19
83	25	Q4:	2	37	48
84	11	Q1:	0	48
85	35	Q5:	1	63	58	54
86	20	Q9:	2	53	66
87	39	Q3:	2	36	40	64
88	22	Q2:	2	55	86
89	9	Q0:	0	51
90	11	Q7:	0
91	17	Q2:	3	84	79
92	19	Q8:	3	55	64	38	50
93	18	Q6:	2
94	14	Q1:	0	92	9	91	34
95	25	Q4:	0	47	62	20
96	19	Q3:	2	64
97	29	Q6:	1	42	87	70	63
98	26	Q2:	0	4	63
99	12	Q4:	0	54
100	18	Q2:	3	42	8
101	11	Q3:	0	80
102	31	Q2:	3	71
103	30	Q5:	2	69	47	85	95	102	45
104	13	Q6:	1	61
105	31	Q7:	2	77	29	73
106	17	Q9:	0	48	66	68	45	92
107	32	Q6:	0	105	24
108	27	Q7:	2	57	11
109	21	Q6:	0	6	96	8
110	20	Q6:	2	98	82	24	38	22	31
111	10	Q9:	3	34	19	15
112	11	Q6:	1	32	20	111
113	20	Q8:	3	83	52
114	20	Q7:	1	54
115	21	Q1:	2	66	101	75	27
116	23	Q6:	3	72	60	17	80
117	40	Q6:	0	11	25
118	11	Q8:	0	22	105	97	89
119	12	Q8:	3
120	11	Q2:	2	11
121	40	Q3:	1	52	57	87	118
122	16	Q6:	1	29	49	84	68	17
123	29	Q8:	3	68	4	58	14	56	30	3	6
124	27	Q4:	0	37
125	29	Q7:	2	56	85	19
126	24	Q4:	2	1	55	46
127	34	Q8:	1	55	115
128	14	Q3:	0	49	109	47	34
129	22	Q2:	0	64
130	32	Q2:	3	3	97
131	25	Q4:	3	37	67	83	78
132	34	Q5:	0	103
133	32	Q1:	3	33	15	121
134	9	Q7:	3	86	6	21	78
135	29	Q4:	0	110	9	29	105
136	40	Q2:	2	95	75	116	13
137	28	Q8:	2	104	92
138	20	Q1:	3	116	90	34	45	22	24	67
139	21	Q6:	3	43	83	108	73
140	22	Q9:	3	90
141	31	Q4:	2	7	35
142	32	Q3:	1	80	23	110	105
143	17	Q5:	3	74
144	15	Q5:	1	130	141	132	46	55	100
145	20	Q4:	2	60
146	15	Q5:	2	75	22	77
147	27	Q4:	1	49	91	33
148	32	Q5:	1	74	144	134	100	11
149	11	Q3:	0	38	54
150	30	Q3:	2	73	124	44	6	8
151	19	Q0:	2	148	13	92	127	86
152	40	Q5:	3	68	73	52
153	14	Q8:	2	130	141	26
154	35	Q0:	0	104	65	142
155	13	Q2:	0	91	77	23	14
156	19	Q9:	2	23	47
157	31	Q5:	2	147	4	127
158	35	Q8:	3	60	129
159	10	Q5:	0	12	82	30	18
160	24	Q2:	0	8
161	37	Q1:	0	59
162	15	Q0:	0	61	86	87	138	77	123
163	22	Q0:	0	27	121	140	33
164	10	Q3:	3	41
165	18	Q1:	1	127	59	102	17	76	6	100
166	16	Q3:	1	101	165	34	32	147
167	20	Q6:	0	161	90	142	84	115
168	38	Q3:	0	46	134	79	118
169	15	Q1:	0	42	52	53	59	43	129	98
170	10	Q8:	1	32	123	116
171	23	Q8:	2	58	12	56	142	120
172	19	Q8:	2	28	117	69	74	116	163	124
173	22	Q8:	0	17	141	86	69	133	118	126
174	29	Q9:	3	115	143
175	23	Q9:	0	86	84	87	146
176	39	Q5:	0	78	21	22	140	70	51	1	117	91
177	33	Q0:	3	129	41	130	154
178	33	Q6:	1	5	26	17	53	69
179	12	Q5:	1	114	13	28	24	84	164
180	32	Q1:	2	102	99	142	158	88	179
181	13	Q0:	2	18	29	95	159
182	35	Q8:	3	76	133	145	79
183	22	Q6:	2	175	71
184	14	Q4:	0	143	3	4	62	167	130	7
185	26	Q5:	0	104	32	18	85	172
186	30	Q9:	0	55	74	5	156	104
187	34	Q6:	2	25	97	151	181	121
188	36	Q9:	0	37	159	101	14	182	109	47
189	38	Q9:	0	148	101	83	97	23	100
190	30	Q6:	2	122	21	97	104
191	37	Q3:	1	71	24	107	190	29	94
192	13	Q1:	3	147	4	164	85	59	127
193	36	Q7:	0	85	35
194	32	Q9:	0	37	85	48	114	34	174	172
195	10	Q1:	1	132	135	44	189
196	33	Q0:	3	157	47	4
197	21	Q1:	3	13	189	132	96	62	130	46	195	102
198	18	Q2:	0	112	188
199	19	Q4:	1	195	165	137	8	136	169	175
200	13	Q0:	3	155	192	121	57	11	171
========================================================== 